p cnf 7230 17
-1922 -2086 3273 0
2086 -3273 0
-1928 -2644 -3278 0
-1926 -2630 -3276 0
-1924 -2094 -3274 0
1928 -3279 0
1926 -3277 0
1924 -3275 0
3278 3279 0
3276 3277 0
3274 3275 0
2644 -3279 0
2630 -3277 0
2094 -3275 0
1930 -3281 0
3272 3273 0
-3272 -3273 0
